(set-info :smt-lib-version 2.6)
(set-logic QF_FXP)
(set-info :category "crafted")
(set-info :source |Alberto Griggio <griggio@fbk.eu>. These benchmarks were used for the evaluation in the following paper: L. Haller, A. Griggio, M. Brain, D. Kroening: Deciding floating-point logic with systematic abstraction. FMCAD 2012. Real-numbered literals have been automatically translated by MathSAT|)
(set-info :status sat)
;; MathSAT API call trace ;; generated on 05/20/15 17:24:51 
(declare-fun b34 () (_ SFXP 32 16))
(declare-fun b31 () (_ SFXP 32 16))
(declare-fun b22 () (_ SFXP 32 16))
(declare-fun b12 () (_ SFXP 32 16))
(declare-fun b27 () (_ SFXP 32 16))
(declare-fun b16 () (_ SFXP 32 16))
(declare-fun b10 () (_ SFXP 32 16))
(declare-fun b24 () (_ SFXP 32 16))
(define-fun _t_3 () RoundingMode roundDown)
(define-fun _t_9 () (_ SFXP 32 16) b10)
(define-fun _t_10 () (_ SFXP 32 16) b16)
(define-fun _t_11 () (_ SFXP 32 16) (sfxp.add saturation _t_9 _t_10))
(define-fun _t_12 () (_ SFXP 32 16) b12)
(define-fun _t_13 () Bool (sfxp.lt _t_12 _t_11))
(define-fun _t_14 () Bool (sfxp.leq _t_9 _t_12))
(define-fun _t_15 () Bool (and _t_13 _t_14))
(define-fun _t_16 () (_ SFXP 32 16) b24)
(define-fun _t_17 () Bool (sfxp.leq _t_9 _t_16))
(define-fun _t_18 () Bool (and _t_15 _t_17))
(define-fun _t_19 () (_ SFXP 32 16) b27)
(define-fun _t_20 () Bool (sfxp.leq _t_19 _t_9))
(define-fun _t_21 () Bool (and _t_18 _t_20))
(define-fun _t_22 () (_ SFXP 32 16) b22)
(define-fun _t_23 () (_ SFXP 32 16) b31)
(define-fun _t_24 () Bool (sfxp.leq _t_22 _t_23))
(define-fun _t_25 () Bool (and _t_21 _t_24))
(define-fun _t_26 () (_ SFXP 32 16) b34)
(define-fun _t_27 () Bool (sfxp.leq _t_26 _t_22))
(define-fun _t_28 () Bool (and _t_25 _t_27))
(assert _t_28)
(check-sat)
(exit)
